&GLOBAL
  PROJECT testsuite_ad
RUN_TYPE ENERGY
  PREFERRED_DIAG_LIBRARY SL
  PRINT_LEVEL medium
&END GLOBAL
&MOTION
 &GEO_OPT
   MAX_DR 0.1E-6
   MAX_FORCE  0.1E-6
   RMS_DR 0.1E-6
   RMS_FORCE 0.1E-6
   MAX_ITER 2000
 &END GEO_OPT
&END MOTION
&FORCE_EVAL
 &PRINT                    
  &FORCES
  &END FORCES
 &END PRINT 
 METHOD Quickstep
  &DFT
&PRINT
 &AO_MATRICES
NDIGITS 16
 OVERLAP
 &END AO_MATRICES
 &END PRINT
    &QS
     METHOD GAPW
      EPS_DEFAULT 1.0E-14
      LMAXN0      4
      GAPW_1C_BASIS EXT_SMALL
    &END QS
 &EXCITED_STATES
OVERLAP_DELTAT
  STATE 4
 &END EXCITED_STATES
    &SCF
      SCF_GUESS restart
      &OT
         PRECONDITIONER FULL_ALL
         MINIMIZER DIIS
      &END OT
MAX_SCF 1
      EPS_SCF 1.0E-8
    &END SCF
    POTENTIAL_FILE_NAME ALL_POTENTIALS
    BASIS_SET_FILE_NAME EMSL_BASIS_SETS
    BASIS_SET_FILE_NAME BASIS_MOLOPT
    BASIS_SET_FILE_NAME BASIS_MOLOPT_UCL
    &MGRID
      CUTOFF 400
      REL_CUTOFF 60
    &END MGRID
    &POISSON
      PERIODIC NONE
      PSOLVER MT
    &END
    &XC
     &XC_FUNCTIONAL B3LYP
     &END XC_FUNCTIONAL
           &VDW_POTENTIAL
         POTENTIAL_TYPE PAIR_POTENTIAL
         &PAIR_POTENTIAL
            PARAMETER_FILE_NAME dftd3.dat
            TYPE DFTD3
            REFERENCE_FUNCTIONAL B3LYP
            R_CUTOFF [angstrom] 20
         &END
      &END VDW_POTENTIAL
    &END XC
  &END DFT
  &SUBSYS
    &CELL
      ABC 14.0 14.0 14.0
      PERIODIC NONE
    &END CELL
  # Coordinates are provided externally for the interface
      &COORD
     @include coord.cp2k          
     &END COORD
    &TOPOLOGY
   #  COORD_FILE_NAME pyrazine_optimized_geometry_with_b3lyp.xyz
   #  COORD_FILE_FORMAT XYZ 
     &CENTER_COORDINATES T
     &END
NATOMS 20
     CONNECTIVITY OFF
    &END TOPOLOGY
    &KIND H 
      BASIS_SET Ahlrichs-def2-TZVP
      POTENTIAL ALL
      RADIAL_GRID 50
      LEBEDEV_GRID 50
      HARD_EXP_RADIUS  1.00
    &END KIND
    &KIND O
      BASIS_SET Ahlrichs-def2-TZVP
      POTENTIAL ALL
      RADIAL_GRID  50
      LEBEDEV_GRID 50
      HARD_EXP_RADIUS  1.40
    &END KIND
    &KIND N
      BASIS_SET Ahlrichs-def2-TZVP
      POTENTIAL ALL
      RADIAL_GRID  50
      LEBEDEV_GRID 50
      HARD_EXP_RADIUS  1.40
    &END KIND
    &KIND C
      BASIS_SET Ahlrichs-def2-TZVP
      POTENTIAL ALL
      RADIAL_GRID  50
      LEBEDEV_GRID 50
      HARD_EXP_RADIUS  1.52
    &END KIND
  &END SUBSYS
&END FORCE_EVAL
