&GLOBAL
  PROJECT testsuite_ad
  RUN_TYPE ENERGY_FORCE
  PRINT_LEVEL medium
&END GLOBAL
&MOTION
 &GEO_OPT
   MAX_DR 0.1E-8
   MAX_FORCE  0.1E-8
   MAX_ITER 900
   RMS_DR 0.1E-8
   RMS_FORCE 0.1E-8
 &END GEO_OPT
&END MOTION
&FORCE_EVAL
 &PRINT             
  &FORCES
  &END FORCES
 &END PRINT 
 METHOD Quickstep
 &PROPERTIES
  &TDDFPT                 
   &DIPOLE_MOMENTS
    DIPOLE_FORM VELOCITY
   &END DIPOLE_MOMENTS
   KERNEL sTDA
   &STDA
     FRACTION 0.0
     DO_EWALD TRUE
     DO_EXCHANGE F
   &END STDA
   NSTATES 80
   MAX_ITER   100
   CONVERGENCE [eV] 1.0e-5
   RKS_TRIPLETS F
   ADMM_KERNEL_CORRECTION_SYMMETRIC T
   &PRINT                    
    &NAMD_PRINT
     PRINT_VIRTUALS T
     PRINT_PHASES T
    &END NAMD_PRINT
   &END PRINT
  &END TDDFPT
 &END PROPERTIES
  &DFT
    &QS
      METHOD GPW
     EPS_DEFAULT 1.0E-17
    &END QS
 &EXCITED_STATES
STATE 1
 &END EXCITED_STATES
    &SCF
      SCF_GUESS restart
      &OT
         PRECONDITIONER FULL_ALL
         MINIMIZER DIIS
      &END OT
      &OUTER_SCF
         MAX_SCF 900
         EPS_SCF 1.0E-9
      &END OUTER_SCF
      MAX_SCF 50
      EPS_SCF 1.0E-9
    &END SCF
    POTENTIAL_FILE_NAME POTENTIAL
    BASIS_SET_FILE_NAME BASIS_MOLOPT
    &MGRID
      CUTOFF 800
      REL_CUTOFF 60
    &END MGRID
    &POISSON
       PERIODIC XYZ
       PSOLVER PERIODIC
    &END
    &XC
     &XC_FUNCTIONAL PBE
     &END XC_FUNCTIONAL
      &VDW_POTENTIAL
         POTENTIAL_TYPE PAIR_POTENTIAL
         &PAIR_POTENTIAL
            PARAMETER_FILE_NAME dftd3.dat
            TYPE DFTD3
            REFERENCE_FUNCTIONAL PBE
            R_CUTOFF [angstrom] 20
         &END
      &END VDW_POTENTIAL
    &END XC
  &END DFT
  &SUBSYS
    &CELL
       ABC 11.252000 3.831200 11.074000
       ALPHA_BETA_GAMMA 90.000000 117.150000  90.000000
      PERIODIC XYZ
    &END CELL
     &COORD
     @include coord.cp2k
     &END COORD
    &TOPOLOGY
     NATOMS 40                     
     CONNECTIVITY OFF
    &END TOPOLOGY
    &KIND H
      BASIS_SET DZVP-MOLOPT-SR-GTH
      POTENTIAL GTH-PBE-q1
    &END KIND
    &KIND O
      BASIS_SET DZVP-MOLOPT-SR-GTH
      POTENTIAL GTH-PBE-q6
    &END KIND
    &KIND N
      BASIS_SET DZVP-MOLOPT-SR-GTH
      POTENTIAL GTH-PBE-q5
    &END KIND
    &KIND C
      BASIS_SET DZVP-MOLOPT-SR-GTH
      POTENTIAL GTH-PBE-q4
    &END KIND
  &END SUBSYS
&END FORCE_EVAL
